0001 10
0002 21
0003 20
0004 22
0005 4
0006 2
0007 18
0008 6
0009 21
0010 7
0011 20
0012 10
0013 11
0014 4
0015 1
0016 22
0017 23
0018 21
0019 7
0020 23
0021 17
0022 2
0023 21
0024 3
0025 8
0026 6
0027 12
0028 10
0029 9
0030 3
0031 4
0032 20
0033 21
0034 22
0035 5
0036 6
0037 8
0038 8
0039 1
0040 2
0041 12
0042 22
0043 2
0044 4
0045 7
0046 1
0047 18
0048 1
0049 11
0050 21
0051 9
0052 11
0053 6
0054 21
0055 1
0056 15
0057 2
0058 22
0059 3
0060 1
0061 23
0062 1
0063 18
0064 9
0065 1
0066 9
0067 12
0068 8
0069 9
0070 13
0071 5
0072 12
0073 11
0074 12
0075 1
0076 16
0077 2
0078 22
0079 2
0080 16
0081 1
0082 17
0083 9
0084 7
0085 3
0086 23
0087 1
0088 13
0089 21
0090 2
0091 5
0092 14
0093 15
0094 11
0095 9
0096 5
0097 17
0098 12
0099 3
0100 6
0101 7
0102 19
0103 13
0104 8
0105 17
0106 23
0107 10
0108 20
0109 15
0110 23
0111 14
0112 6
0113 19
0114 11
0115 13
0116 15
0117 13
0118 20
0119 19
0120 8
0121 6
0122 1
0123 12
0124 18
0125 1
0126 4
0127 14
0128 8
0129 10
0130 7
0131 23
0132 19
0133 22
0134 3
0135 22
0136 4
0137 1
0138 10
0139 14
0140 5
0141 1
0142 17
0143 10
0144 6
0145 22
0146 19
0147 4
0148 23
0149 4
0150 21
0151 8
0152 2
0153 19
0154 15
0155 6
0156 1
0157 4
0158 16
0159 3
0160 22
0161 14
0162 11
0163 2
0164 10
0165 23
0166 22
0167 19
0168 23
0169 20
0170 5
0171 14
0172 23
0173 8
0174 7
0175 20
0176 14
0177 18
0178 23
0179 2
0180 19
0181 15
0182 1
0183 8
0184 7
0185 23
0186 1
0187 5
0188 16
0189 12
0190 11
0191 17
0192 18
0193 18
0194 13
0195 4
0196 8
0197 23
0198 9
0199 1
0200 1
0201 6
0202 22
0203 3
0204 18
0205 23
0206 13
0207 1
0208 4
0209 21
0210 5
0211 12
0212 15
0213 7
0214 2
0215 22
0216 22
0217 20
0218 16
0219 2
0220 21
0221 18
0222 4
0223 8
0224 23
0225 1
0226 19
0227 21
0228 3
0229 22
0230 2
0231 17
0232 20
0233 3
0234 4
0235 4
0236 23
0237 2
0238 21
0239 7
0240 3
0241 15
0242 5
0243 6
0244 23
0245 17
0246 17
0247 5
0248 4
0249 3
0250 14
0251 10
0252 6
0253 9
0254 8
0255 19
0256 23
0257 22
0258 19
0259 1
0260 11
0261 4
